column=6;
row=6;
Board=[|1,0,0,0,0,3|0,5,1,0,0,0|0,0,0,0,0,0|0,4,3,0,0,5|6,0,2,3,0,0|5,0,0,1,0,0|];
horizontal=[|0,1,0,0,1|0,0,0,0,0|0,0,1,0,0|0,1,0,0,0|0,1,1,0,1|0,1,0,1,0|];
vertical=[|0,1,0,0,0,1|1,0,0,1,0,1|0,0,0,1,0,0|0,0,1,0,0,1|1,0,0,0,0,0|];
